sat
(model
(define-fun |goto_symex::&92;guard#1| () Bool true)
(define-fun |goto_symex::&92;guard#2| () Bool false)
(define-fun |goto_symex::&92;guard#3| () Bool false)
(define-fun |goto_symex::&92;guard#4| () Bool false)
(define-fun |goto_symex::&92;guard#5| () Bool true)
(define-fun array_of.0 () (Array (_ BitVec 32) (_ BitVec 1)) ((as const (Array (_ BitVec 32) (_ BitVec 1))) #b0))
(define-fun |argc'#0| () (_ BitVec 32) #b00000001000000000000000000000000)
(define-fun |argv'#0| () (Array (_ BitVec 32) (_ BitVec 32)) ((as const (Array (_ BitVec 32) (_ BitVec 32))) #b00000000000000000000000000000000))
(define-fun |argv'| () (Array (_ BitVec 32) (_ BitVec 32)) ((as const (Array (_ BitVec 32) (_ BitVec 32))) #b00000000000000000000000000000000))
(define-fun |nondet_symex::nondet0| () (_ BitVec 32) #b00000000000000000000000000000001)
(define-fun |main::1::t1!0@1| () (_ BitVec 32) #b00000000000000000000000000000000)
(define-fun |n#3| () (_ BitVec 32) #b00000000000000000000000000000001)
(define-fun |main::1::t2!0@1| () (_ BitVec 32) #b00000000000000000000000000000000)
(define-fun |__CPROVER_next_thread_id#3| () (_ BitVec 32) #b00000000000000000000000000000001)
(define-fun |__CPROVER_next_thread_id#5| () (_ BitVec 32) #b00000000000000000000000000000010)
(define-fun |n#4| () (_ BitVec 32) #b00000000000000000000000000000001)
(define-fun |__CPROVER_next_thread_id#8| () (_ BitVec 32) #b00000000000000000000000000000000)
(define-fun |n#5| () (_ BitVec 32) #b10011010110000000000011101111111)
(define-fun |__CPROVER_next_thread_id#11| () (_ BitVec 32) #b00000000000000000000000000000000)
(define-fun |n#6| () (_ BitVec 32) #b00000000000000000000000000000000)
(define-fun |__CPROVER_next_thread_id#14| () (_ BitVec 32) #b00000000000000000000000000000000)
(define-fun |pthread_create::1::this_thread_id!1@0#0| () (_ BitVec 32) #b00000000000000000000000000000000)
(define-fun |x#4| () (_ BitVec 32) #b00000000000000000000000000000001)
(define-fun |n#8| () (_ BitVec 32) #b00000000000000000000000000000001)
(define-fun |__CPROVER_threads_exited#2| () (Array (_ BitVec 32) (_ BitVec 1)) ((as const (Array (_ BitVec 32) (_ BitVec 1))) #b0))
(define-fun |pthread_create::1::this_thread_id!2@0#0| () (_ BitVec 32) #b00000000000000000000000000000000)
(define-fun |x#5| () (_ BitVec 32) #b00000000000000000000000000000000)
(define-fun |__CPROVER_threads_exited#4| () (Array (_ BitVec 32) (_ BitVec 1)) ((as const (Array (_ BitVec 32) (_ BitVec 1))) #b0))
(define-fun |pthread_create::1::this_thread_id!3@0#0| () (_ BitVec 32) #b00000000000000000000000000000000)
(define-fun |x#7| () (_ BitVec 32) #b00000000000000000000000000000000)
(define-fun |__CPROVER_threads_exited#6| () (Array (_ BitVec 32) (_ BitVec 1)) ((as const (Array (_ BitVec 32) (_ BitVec 1))) #b0))
(define-fun |pthread_create::1::this_thread_id!4@0#0| () (_ BitVec 32) #b00000000000000000000000000000000)
(define-fun |x#9| () (_ BitVec 32) #b00000000000000000000000000000000)
(define-fun |__CPROVER_threads_exited#8| () (Array (_ BitVec 32) (_ BitVec 1)) ((as const (Array (_ BitVec 32) (_ BitVec 1))) #b0))
(define-fun |pthread_create::1::this_thread_id!5@0#0| () (_ BitVec 32) #b00000000000000000000000000000000)
(define-fun |x#11| () (_ BitVec 32) #b00000000000000000000000000000000)
(define-fun |__CPROVER_threads_exited#10| () (Array (_ BitVec 32) (_ BitVec 1)) ((as const (Array (_ BitVec 32) (_ BitVec 1))) #b0))
(define-fun |main::1::t1!0@1#1| () (_ BitVec 32) #b00000000000000000000000000000000)
(define-fun |main::1::t2!0@1#1| () (_ BitVec 32) #b00000000000000000000000000000000)
(define-fun |main::1::i!0@1#1| () (_ BitVec 32) #b00000000000000000000000000000000)
(define-fun |pthread_create::1::this_thread_id!0@1#1| () (_ BitVec 32) #b00000000000000000000000000000000)
(define-fun |pthread_create::1::this_thread_id!0@2#1| () (_ BitVec 32) #b00000000000000000000000000000000)
(define-fun |pthread_create::1::this_thread_id!0@3#1| () (_ BitVec 32) #b00000000000000000000000000000000)
(define-fun |pthread_create::1::this_thread_id!0@4#1| () (_ BitVec 32) #b00000000000000000000000000000000)
(define-fun |pthread_create::1::this_thread_id!0@5#1| () (_ BitVec 32) #b00000000000000000000000000000000)
(define-fun |thr2::1::t!2@1#1| () (_ BitVec 32) #b00000000000000000000000000000000)
(define-fun |thr2::1::t!3@1#1| () (_ BitVec 32) #b00000000000000000000000000000000)
(define-fun |thr2::1::t!4@1#1| () (_ BitVec 32) #b00000000000000000000000000000000)
(define-fun |thr2::1::t!5@1#1| () (_ BitVec 32) #b00000000000000000000000000000000)
(define-fun |symex::io::0| () (_ BitVec 32) #b00000001000000000000000000000000)
(define-fun |memory_model::choice_rf_1_4_0_8_T_0| () Bool false)
(define-fun |__CPROVER_threads_exited#1$wclk$8| () (_ BitVec 6) #b010001)
(define-fun |__CPROVER_threads_exited#2$rclk$8| () (_ BitVec 6) #b111110)
(define-fun |memory_model::choice_rf_1_4_2_3_T_1| () Bool false)
(define-fun |__CPROVER_threads_exited#5$wclk$8| () (_ BitVec 6) #b111110)
(define-fun |memory_model::choice_rf_1_4_3_3_T_2| () Bool false)
(define-fun |__CPROVER_threads_exited#7$wclk$8| () (_ BitVec 6) #b111101)
(define-fun |memory_model::choice_rf_1_4_4_3_T_3| () Bool false)
(define-fun |__CPROVER_threads_exited#9$wclk$8| () (_ BitVec 6) #b111100)
(define-fun |memory_model::choice_rf_1_4_5_3_T_4| () Bool false)
(define-fun |__CPROVER_threads_exited#11$wclk$8| () (_ BitVec 6) #b111011)
(define-fun |memory_model::choice_rf_2_2_0_8_T_5| () Bool true)
(define-fun |__CPROVER_threads_exited#4$rclk$8| () (_ BitVec 6) #b111010)
(define-fun |memory_model::choice_rf_2_2_1_5_T_6| () Bool false)
(define-fun |__CPROVER_threads_exited#3$wclk$8| () (_ BitVec 6) #b111111)
(define-fun |memory_model::choice_rf_2_2_3_3_T_7| () Bool false)
(define-fun |memory_model::choice_rf_2_2_4_3_T_8| () Bool false)
(define-fun |memory_model::choice_rf_2_2_5_3_T_9| () Bool false)
(define-fun |memory_model::choice_rf_3_2_0_8_T_10| () Bool false)
(define-fun |__CPROVER_threads_exited#6$rclk$8| () (_ BitVec 6) #b111001)
(define-fun |memory_model::choice_rf_3_2_1_5_T_11| () Bool false)
(define-fun |memory_model::choice_rf_3_2_2_3_T_12| () Bool false)
(define-fun |memory_model::choice_rf_3_2_4_3_T_13| () Bool false)
(define-fun |memory_model::choice_rf_3_2_5_3_T_14| () Bool false)
(define-fun |memory_model::choice_rf_4_2_0_8_T_15| () Bool false)
(define-fun |__CPROVER_threads_exited#8$rclk$8| () (_ BitVec 6) #b111001)
(define-fun |memory_model::choice_rf_4_2_1_5_T_16| () Bool false)
(define-fun |memory_model::choice_rf_4_2_2_3_T_17| () Bool false)
(define-fun |memory_model::choice_rf_4_2_3_3_T_18| () Bool false)
(define-fun |memory_model::choice_rf_4_2_5_3_T_19| () Bool false)
(define-fun |memory_model::choice_rf_5_2_0_8_T_20| () Bool false)
(define-fun |__CPROVER_threads_exited#10$rclk$8| () (_ BitVec 6) #b111001)
(define-fun |memory_model::choice_rf_5_2_1_5_T_21| () Bool false)
(define-fun |memory_model::choice_rf_5_2_2_3_T_22| () Bool false)
(define-fun |memory_model::choice_rf_5_2_3_3_T_23| () Bool false)
(define-fun |memory_model::choice_rf_5_2_4_3_T_24| () Bool false)
(define-fun |memory_model::choice_rf_0_20_0_6_T_25| () Bool false)
(define-fun |memory_model::choice_rf_0_20_0_16_T_26| () Bool true)
(define-fun |memory_model::choice_rf_0_25_0_6_T_27| () Bool false)
(define-fun |memory_model::choice_rf_0_25_0_16_T_28| () Bool false)
(define-fun |memory_model::choice_rf_0_25_0_21_T_29| () Bool false)
(define-fun |memory_model::choice_rf_0_30_0_6_T_30| () Bool false)
(define-fun |memory_model::choice_rf_0_30_0_16_T_31| () Bool false)
(define-fun |memory_model::choice_rf_0_30_0_21_T_32| () Bool false)
(define-fun |memory_model::choice_rf_0_30_0_26_T_33| () Bool false)
(define-fun |memory_model::choice_rf_0_35_0_6_T_34| () Bool false)
(define-fun |memory_model::choice_rf_0_35_0_16_T_35| () Bool false)
(define-fun |memory_model::choice_rf_0_35_0_21_T_36| () Bool false)
(define-fun |memory_model::choice_rf_0_35_0_26_T_37| () Bool false)
(define-fun |memory_model::choice_rf_0_35_0_31_T_38| () Bool false)
(define-fun |x#3| () (_ BitVec 32) #b00000000000000000000000000000001)
(define-fun |memory_model::choice_rf_1_0_0_10_F_39| () Bool false)
(define-fun |x#1$wclk$8| () (_ BitVec 6) #b010100)
(define-fun |x#3$rclk$8| () (_ BitVec 6) #b111010)
(define-fun |memory_model::choice_rf_1_0_0_14_F_40| () Bool false)
(define-fun |x#2$wclk$8| () (_ BitVec 6) #b011101)
(define-fun |memory_model::choice_rf_1_0_2_1_F_41| () Bool true)
(define-fun |x#6$wclk$8| () (_ BitVec 6) #b111001)
(define-fun |memory_model::choice_rf_1_0_3_1_F_42| () Bool false)
(define-fun |x#8$wclk$8| () (_ BitVec 6) #b111000)
(define-fun |memory_model::choice_rf_1_0_4_1_F_43| () Bool false)
(define-fun |x#10$wclk$8| () (_ BitVec 6) #b110111)
(define-fun |memory_model::choice_rf_1_0_5_1_F_44| () Bool false)
(define-fun |x#12$wclk$8| () (_ BitVec 6) #b110110)
(define-fun |memory_model::choice_rf_1_2_0_10_F_45| () Bool false)
(define-fun |x#4$rclk$8| () (_ BitVec 6) #b111100)
(define-fun |memory_model::choice_rf_1_2_0_14_F_46| () Bool false)
(define-fun |memory_model::choice_rf_1_2_2_1_F_47| () Bool true)
(define-fun |memory_model::choice_rf_1_2_3_1_F_48| () Bool false)
(define-fun |memory_model::choice_rf_1_2_4_1_F_49| () Bool false)
(define-fun |memory_model::choice_rf_1_2_5_1_F_50| () Bool false)
(define-fun |memory_model::choice_rf_2_0_0_10_F_51| () Bool false)
(define-fun |x#5$rclk$8| () (_ BitVec 6) #b101110)
(define-fun |memory_model::choice_rf_2_0_0_14_F_52| () Bool true)
(define-fun |memory_model::choice_rf_2_0_3_1_F_53| () Bool false)
(define-fun |memory_model::choice_rf_2_0_4_1_F_54| () Bool false)
(define-fun |memory_model::choice_rf_2_0_5_1_F_55| () Bool false)
(define-fun |memory_model::choice_rf_3_0_0_10_F_56| () Bool false)
(define-fun |x#7$rclk$8| () (_ BitVec 6) #b101010)
(define-fun |memory_model::choice_rf_3_0_0_14_F_57| () Bool false)
(define-fun |memory_model::choice_rf_3_0_2_1_F_58| () Bool false)
(define-fun |memory_model::choice_rf_3_0_4_1_F_59| () Bool false)
(define-fun |memory_model::choice_rf_3_0_5_1_F_60| () Bool false)
(define-fun |memory_model::choice_rf_4_0_0_10_F_61| () Bool false)
(define-fun |x#9$rclk$8| () (_ BitVec 6) #b110001)
(define-fun |memory_model::choice_rf_4_0_0_14_F_62| () Bool false)
(define-fun |memory_model::choice_rf_4_0_2_1_F_63| () Bool false)
(define-fun |memory_model::choice_rf_4_0_3_1_F_64| () Bool false)
(define-fun |memory_model::choice_rf_4_0_5_1_F_65| () Bool false)
(define-fun |memory_model::choice_rf_5_0_0_10_F_66| () Bool false)
(define-fun |x#11$rclk$8| () (_ BitVec 6) #b110101)
(define-fun |memory_model::choice_rf_5_0_0_14_F_67| () Bool false)
(define-fun |memory_model::choice_rf_5_0_2_1_F_68| () Bool false)
(define-fun |memory_model::choice_rf_5_0_3_1_F_69| () Bool false)
(define-fun |memory_model::choice_rf_5_0_4_1_F_70| () Bool false)
(define-fun |memory_model::choice_rf_0_19_0_9_F_71| () Bool false)
(define-fun |memory_model::choice_rf_0_19_0_15_F_72| () Bool true)
(define-fun |memory_model::choice_rf_0_24_0_9_F_73| () Bool false)
(define-fun |memory_model::choice_rf_0_24_0_15_F_74| () Bool true)
(define-fun |memory_model::choice_rf_0_29_0_9_F_75| () Bool false)
(define-fun |memory_model::choice_rf_0_29_0_15_F_76| () Bool false)
(define-fun |memory_model::choice_rf_0_34_0_9_F_77| () Bool false)
(define-fun |memory_model::choice_rf_0_34_0_15_F_78| () Bool false)
(define-fun |n#7| () (_ BitVec 32) #b00000000000000000000000000000001)
(define-fun |memory_model::choice_rf_1_1_0_9_F_79| () Bool false)
(define-fun |n#1$wclk$8| () (_ BitVec 6) #b010010)
(define-fun |n#7$rclk$8| () (_ BitVec 6) #b111011)
(define-fun |memory_model::choice_rf_1_1_0_15_F_80| () Bool true)
(define-fun |n#2$wclk$8| () (_ BitVec 6) #b011110)
(define-fun |memory_model::choice_rf_1_3_0_9_F_81| () Bool false)
(define-fun |n#8$rclk$8| () (_ BitVec 6) #b111101)
(define-fun |memory_model::choice_rf_1_3_0_15_F_82| () Bool true)
(define-fun |memory_model::choice_ws-ext_0_8_1_5_T_83| () Bool true)
(define-fun |memory_model::choice_ws-ext_0_8_2_3_T_84| () Bool true)
(define-fun |memory_model::choice_ws-ext_0_8_3_3_T_85| () Bool true)
(define-fun |memory_model::choice_ws-ext_0_8_4_3_T_86| () Bool true)
(define-fun |memory_model::choice_ws-ext_0_8_5_3_T_87| () Bool true)
(define-fun |memory_model::choice_ws-ext_1_5_2_3_T_88| () Bool false)
(define-fun |memory_model::choice_ws-ext_1_5_3_3_T_89| () Bool false)
(define-fun |memory_model::choice_ws-ext_1_5_4_3_T_90| () Bool false)
(define-fun |memory_model::choice_ws-ext_1_5_5_3_T_91| () Bool false)
(define-fun |memory_model::choice_ws-ext_2_3_3_3_T_92| () Bool false)
(define-fun |memory_model::choice_ws-ext_2_3_4_3_T_93| () Bool false)
(define-fun |memory_model::choice_ws-ext_2_3_5_3_T_94| () Bool false)
(define-fun |memory_model::choice_ws-ext_3_3_4_3_T_95| () Bool false)
(define-fun |memory_model::choice_ws-ext_3_3_5_3_T_96| () Bool false)
(define-fun |memory_model::choice_ws-ext_4_3_5_3_T_97| () Bool false)
(define-fun |memory_model::choice_ws-ext_0_10_2_1_F_98| () Bool true)
(define-fun |memory_model::choice_ws-ext_0_10_3_1_F_99| () Bool true)
(define-fun |memory_model::choice_ws-ext_0_10_4_1_F_100| () Bool true)
(define-fun |memory_model::choice_ws-ext_0_10_5_1_F_101| () Bool true)
(define-fun |memory_model::choice_ws-ext_0_14_2_1_F_102| () Bool true)
(define-fun |memory_model::choice_ws-ext_0_14_3_1_F_103| () Bool true)
(define-fun |memory_model::choice_ws-ext_0_14_4_1_F_104| () Bool true)
(define-fun |memory_model::choice_ws-ext_0_14_5_1_F_105| () Bool true)
(define-fun |memory_model::choice_ws-ext_2_1_3_1_F_106| () Bool false)
(define-fun |memory_model::choice_ws-ext_2_1_4_1_F_107| () Bool false)
(define-fun |memory_model::choice_ws-ext_2_1_5_1_F_108| () Bool false)
(define-fun |memory_model::choice_ws-ext_3_1_4_1_F_109| () Bool false)
(define-fun |memory_model::choice_ws-ext_3_1_5_1_F_110| () Bool false)
(define-fun |memory_model::choice_ws-ext_4_1_5_1_F_111| () Bool false)
(define-fun t1$18$spwnclk$8 () (_ BitVec 6) #b100001)
(define-fun t1$23$spwnclk$8 () (_ BitVec 6) #b100101)
(define-fun t1$28$spwnclk$8 () (_ BitVec 6) #b101001)
(define-fun t1$33$spwnclk$8 () (_ BitVec 6) #b110000)
(define-fun t1$38$spwnclk$8 () (_ BitVec 6) #b110100)
(define-fun |__CPROVER_dead_object#1$wclk$8| () (_ BitVec 6) #b000010)
(define-fun |__CPROVER_deallocated#1$wclk$8| () (_ BitVec 6) #b000100)
(define-fun |__CPROVER_malloc_is_new_array#1$wclk$8| () (_ BitVec 6) #b000101)
(define-fun |__CPROVER_malloc_object#1$wclk$8| () (_ BitVec 6) #b000110)
(define-fun |__CPROVER_malloc_size#1$wclk$8| () (_ BitVec 6) #b000111)
(define-fun |__CPROVER_memory_leak#1$wclk$8| () (_ BitVec 6) #b001010)
(define-fun |__CPROVER_next_thread_id#1$wclk$8| () (_ BitVec 6) #b001011)
(define-fun |__CPROVER_pipe_count#1$wclk$8| () (_ BitVec 6) #b010000)
(define-fun |argv'#1$wclk$8| () (_ BitVec 6) #b010101)
(define-fun |main::1::t1!0@1#1$wclk$8| () (_ BitVec 6) #b011011)
(define-fun |main::1::t2!0@1#1$wclk$8| () (_ BitVec 6) #b011100)
(define-fun |__CPROVER_next_thread_id#2$wclk$8| () (_ BitVec 6) #b011111)
(define-fun |main::1::t1!0@1#2$wclk$8| () (_ BitVec 6) #b100000)
(define-fun |n#3$rclk$8| () (_ BitVec 6) #b100010)
(define-fun |__CPROVER_next_thread_id#3$rclk$8| () (_ BitVec 6) #b100011)
(define-fun |__CPROVER_next_thread_id#7$wclk$8| () (_ BitVec 6) #b100011)
(define-fun |main::1::t2!0@1#2$wclk$8| () (_ BitVec 6) #b100100)
(define-fun |n#4$rclk$8| () (_ BitVec 6) #b100110)
(define-fun |__CPROVER_next_thread_id#8$rclk$8| () (_ BitVec 6) #b100111)
(define-fun |__CPROVER_next_thread_id#10$wclk$8| () (_ BitVec 6) #b100111)
(define-fun |main::1::t2!0@1#3$wclk$8| () (_ BitVec 6) #b101000)
(define-fun |n#5$rclk$8| () (_ BitVec 6) #b101100)
(define-fun |__CPROVER_next_thread_id#11$rclk$8| () (_ BitVec 6) #b101101)
(define-fun |__CPROVER_next_thread_id#13$wclk$8| () (_ BitVec 6) #b101101)
(define-fun |main::1::t2!0@1#4$wclk$8| () (_ BitVec 6) #b101110)
(define-fun |n#6$rclk$8| () (_ BitVec 6) #b110001)
(define-fun |__CPROVER_next_thread_id#14$rclk$8| () (_ BitVec 6) #b110010)
(define-fun |__CPROVER_next_thread_id#16$wclk$8| () (_ BitVec 6) #b110010)
(define-fun |main::1::t2!0@1#5$wclk$8| () (_ BitVec 6) #b110011)
)

real	0m0.128s
user	0m0.125s
sys	0m0.003s
State: AC Run_time: 0.13018393516540527